c uprop, v00.0, 
c reading from data/prog954.c.cnf
c done reading: 0.003057
p cnf 193 939
-98 -118 0
-98 -115 0
98 115 118 0
-92 115 118 0
-92 -115 -118 0
92 115 -118 0
92 -115 118 0
98 -110 0
-108 -110 0
-98 108 110 0
-98 -103 108 0
98 -103 -108 0
98 103 108 0
-98 103 -108 0
-99 110 0
-96 -99 0
96 99 -110 0
-94 96 -110 0
-94 -96 110 0
94 96 110 0
94 -96 -110 0
-93 99 0
-90 -93 0
90 93 -99 0
90 -99 -116 0
-90 99 -116 0
90 99 116 0
-90 -99 116 0
93 -120 0
-112 -120 0
-93 112 120 0
-93 112 -121 0
93 -112 -121 0
93 112 121 0
-93 -112 121 0
120 -122 0
-105 -122 0
105 -120 122 0
105 -120 -123 0
-105 120 -123 0
105 120 123 0
-105 -120 123 0
122 -124 0
-101 -124 0
101 -122 124 0
101 -122 -125 0
-101 122 -125 0
101 122 125 0
-101 -122 125 0
115 -126 0
118 -126 0
-115 -118 126 0
-115 -118 -127 0
115 118 -127 0
-115 118 127 0
115 -118 127 0
-108 -115 128 0
-108 -126 128 0
-115 -126 128 0
108 115 -128 0
108 126 -128 0
115 126 -128 0
108 -128 -129 0
115 -128 -129 0
126 -128 -129 0
-108 128 129 0
-115 128 129 0
-126 128 129 0
-108 -115 -126 129 0
108 115 126 -129 0
-96 -108 130 0
-96 -128 130 0
-108 -128 130 0
96 108 -130 0
96 128 -130 0
108 128 -130 0
96 -130 -131 0
108 -130 -131 0
128 -130 -131 0
-96 130 131 0
-108 130 131 0
-128 130 131 0
-96 -108 -128 131 0
96 108 128 -131 0
-90 -96 132 0
-90 -130 132 0
-96 -130 132 0
90 96 -132 0
90 130 -132 0
96 130 -132 0
-88 90 -132 0
-88 96 -132 0
-88 130 -132 0
88 -90 132 0
88 -96 132 0
88 -130 132 0
88 -90 -96 -130 0
-88 90 96 130 0
87 -90 -112 0
87 -112 -132 0
87 -90 -132 0
-87 90 112 0
-87 112 132 0
-87 90 132 0
-86 -87 112 0
-86 -87 90 0
-86 -87 132 0
86 87 -112 0
86 87 -90 0
86 87 -132 0
86 -90 -112 -132 0
-86 90 112 132 0
85 -105 -112 0
85 -87 -105 0
85 -87 -112 0
-85 105 112 0
-85 87 105 0
-85 87 112 0
-84 -85 105 0
-84 -85 112 0
-84 -85 87 0
84 85 -105 0
84 85 -112 0
84 85 -87 0
84 -87 -105 -112 0
-84 87 105 112 0
83 -101 -105 0
83 -85 -101 0
83 -85 -105 0
-83 101 105 0
-83 85 101 0
-83 85 105 0
-83 101 -117 0
-83 105 -117 0
-83 85 -117 0
83 -101 117 0
83 -105 117 0
83 -85 117 0
-85 -101 -105 117 0
85 101 105 -117 0
101 -114 0
83 -114 0
-83 -101 114 0
-83 -101 -107 0
83 101 -107 0
83 -101 107 0
-83 101 107 0
-95 129 0
-95 118 0
95 -118 -129 0
-89 -118 -129 0
-89 118 129 0
89 118 -129 0
89 -118 129 0
111 -115 -131 0
-95 111 -131 0
-95 111 -115 0
-111 115 131 0
95 -111 131 0
95 -111 115 0
-104 -111 131 0
-104 -111 115 0
95 -104 -111 0
104 111 -131 0
104 111 -115 0
-95 104 111 0
-95 104 -115 -131 0
95 -104 115 131 0
-88 100 -108 0
-88 100 -111 0
100 -108 -111 0
88 -100 108 0
88 -100 111 0
-100 108 111 0
-82 88 -100 0
-82 -100 108 0
-82 -100 111 0
82 -88 100 0
82 100 -108 0
82 100 -111 0
82 -88 -108 -111 0
-82 88 108 111 0
81 -86 -96 0
81 -86 -100 0
81 -96 -100 0
-81 86 96 0
-81 86 100 0
-81 96 100 0
-80 -81 86 0
-80 -81 96 0
-80 -81 100 0
80 81 -86 0
80 81 -96 0
80 81 -100 0
80 -86 -96 -100 0
-80 86 96 100 0
79 -84 -90 0
79 -81 -84 0
79 -81 -90 0
-79 84 90 0
-79 81 84 0
-79 81 90 0
-78 -79 84 0
-78 -79 90 0
-78 -79 81 0
78 79 -84 0
78 79 -90 0
78 79 -81 0
78 -81 -84 -90 0
-78 81 84 90 0
77 -112 -117 0
77 -79 -117 0
77 -79 -112 0
-77 112 117 0
-77 79 117 0
-77 79 112 0
-76 -77 117 0
-76 -77 112 0
-76 -77 79 0
76 77 -117 0
76 77 -112 0
76 77 -79 0
76 -79 -112 -117 0
-76 79 112 117 0
75 -105 -107 0
75 -77 -107 0
75 -77 -105 0
-75 105 107 0
-75 77 107 0
-75 77 105 0
-74 -75 107 0
-74 -75 105 0
-74 -75 77 0
74 75 -107 0
74 75 -105 0
74 75 -77 0
74 -77 -105 -107 0
-74 77 105 107 0
73 -101 -114 0
73 -75 -114 0
73 -75 -101 0
-73 101 114 0
-73 75 114 0
-73 75 101 0
-72 -73 114 0
-72 -73 101 0
-72 -73 75 0
72 73 -114 0
72 73 -101 0
72 73 -75 0
72 -75 -101 -114 0
-72 75 101 114 0
-71 -118 0
-71 -127 0
71 118 127 0
-70 118 127 0
-70 -118 -127 0
70 -118 127 0
70 118 -127 0
-69 71 0
-69 -89 0
69 -71 89 0
-68 -71 89 0
-68 71 -89 0
68 71 89 0
68 -71 -89 0
-67 69 0
-67 -104 0
67 -69 104 0
-69 104 -133 0
69 -104 -133 0
69 104 133 0
-69 -104 133 0
67 -134 0
-82 -134 0
-67 82 134 0
-67 82 -135 0
67 -82 -135 0
67 82 135 0
-67 -82 135 0
134 -136 0
-80 -136 0
80 -134 136 0
80 -134 -137 0
-80 134 -137 0
80 134 137 0
-80 -134 137 0
136 -138 0
-78 -138 0
78 -136 138 0
78 -136 -139 0
-78 136 -139 0
78 136 139 0
-78 -136 139 0
138 -140 0
-76 -140 0
76 -138 140 0
76 -138 -141 0
-76 138 -141 0
76 138 141 0
-76 -138 141 0
140 -142 0
-74 -142 0
74 -140 142 0
74 -140 -143 0
-74 140 -143 0
74 140 143 0
-74 -140 143 0
142 -144 0
-72 -144 0
72 -142 144 0
72 -142 -145 0
-72 142 -145 0
72 142 145 0
-72 -142 145 0
144 -146 0
-73 -146 0
73 -144 146 0
73 -144 -147 0
-73 144 -147 0
73 144 147 0
-73 -144 147 0
-148 -150 0
148 150 0
148 -151 0
-148 151 0
150 -152 0
-152 -153 0
-150 152 153 0
-150 153 -155 0
150 -153 -155 0
150 153 155 0
-150 -153 155 0
152 -156 0
-156 -157 0
-152 156 157 0
-152 157 -159 0
152 -157 -159 0
152 157 159 0
-152 -157 159 0
156 -160 0
-160 -161 0
-156 160 161 0
-156 161 -163 0
156 -161 -163 0
156 161 163 0
-156 -161 163 0
160 -164 0
-164 -165 0
-160 164 165 0
-160 165 -167 0
160 -165 -167 0
160 165 167 0
-160 -165 167 0
164 -168 0
-168 -169 0
-164 168 169 0
-164 169 -171 0
164 -169 -171 0
164 169 171 0
-164 -169 171 0
168 -172 0
-172 -173 0
-168 172 173 0
-168 173 -175 0
168 -173 -175 0
168 173 175 0
-168 -173 175 0
148 -176 0
-148 176 0
-148 -153 177 0
148 153 -177 0
153 -177 0
148 -177 0
153 -177 -178 0
148 -177 -178 0
-177 -178 0
-153 177 178 0
-148 177 178 0
148 153 -178 0
-153 -157 179 0
-157 -177 179 0
-153 -177 179 0
153 157 -179 0
157 177 -179 0
153 177 -179 0
157 -179 -180 0
153 -179 -180 0
177 -179 -180 0
-157 179 180 0
-153 179 180 0
-177 179 180 0
-153 -157 -177 180 0
153 157 177 -180 0
-157 -161 181 0
-161 -179 181 0
-157 -179 181 0
157 161 -181 0
161 179 -181 0
157 179 -181 0
161 -181 -182 0
157 -181 -182 0
179 -181 -182 0
-161 181 182 0
-157 181 182 0
-179 181 182 0
-157 -161 -179 182 0
157 161 179 -182 0
-161 -165 183 0
-165 -181 183 0
-161 -181 183 0
161 165 -183 0
165 181 -183 0
161 181 -183 0
165 -183 -184 0
161 -183 -184 0
181 -183 -184 0
-165 183 184 0
-161 183 184 0
-181 183 184 0
-161 -165 -181 184 0
161 165 181 -184 0
-165 -169 185 0
-169 -183 185 0
-165 -183 185 0
165 169 -185 0
169 183 -185 0
165 183 -185 0
169 -185 -186 0
165 -185 -186 0
183 -185 -186 0
-169 185 186 0
-165 185 186 0
-183 185 186 0
-165 -169 -183 186 0
165 169 183 -186 0
-169 -173 187 0
-173 -185 187 0
-169 -185 187 0
169 173 -187 0
173 185 -187 0
169 185 -187 0
173 -187 -188 0
169 -187 -188 0
185 -187 -188 0
-173 187 188 0
-169 187 188 0
-185 187 188 0
-169 -173 -185 188 0
169 173 185 -188 0
173 -189 0
187 -189 0
-173 -187 189 0
-119 -173 -187 0
-119 173 187 0
119 -173 187 0
119 173 -187 0
-109 180 0
109 -180 0
97 -148 -182 0
-97 148 182 0
-97 182 0
-97 148 0
-91 -97 182 0
-91 -97 148 0
-91 -97 0
91 97 -182 0
91 97 -148 0
-91 148 182 0
113 -153 -184 0
-97 113 -184 0
-97 113 -153 0
-113 153 184 0
97 -113 184 0
97 -113 153 0
-106 -113 184 0
-106 -113 153 0
97 -106 -113 0
106 113 -184 0
106 113 -153 0
-97 106 113 0
-97 106 -153 -184 0
97 -106 153 184 0
102 -157 -186 0
102 -113 -186 0
102 -113 -157 0
-102 157 186 0
-102 113 186 0
-102 113 157 0
-102 186 -190 0
-102 157 -190 0
-102 113 -190 0
102 -186 190 0
102 -157 190 0
102 -113 190 0
-113 -157 -186 190 0
113 157 186 -190 0
149 -161 -188 0
-102 149 -188 0
-102 149 -161 0
-149 161 188 0
102 -149 188 0
102 -149 161 0
-149 -154 188 0
-149 -154 161 0
102 -149 -154 0
149 154 -188 0
149 154 -161 0
-102 149 154 0
-102 154 -161 -188 0
102 -154 161 188 0
-119 158 -165 0
-119 -149 158 0
-149 158 -165 0
119 -158 165 0
119 149 -158 0
149 -158 165 0
119 -158 -162 0
-158 -162 165 0
149 -158 -162 0
-119 158 162 0
158 162 -165 0
-149 158 162 0
-119 -149 162 -165 0
119 149 -162 165 0
166 -169 -189 0
-158 166 -189 0
-158 166 -169 0
-166 169 189 0
158 -166 189 0
158 -166 169 0
-166 -170 189 0
-166 169 -170 0
158 -166 -170 0
166 170 -189 0
166 -169 170 0
-158 166 170 0
-158 -169 170 -189 0
158 169 -170 189 0
173 -174 0
166 -174 0
-166 -173 174 0
-166 -173 -191 0
166 173 -191 0
166 -173 191 0
-166 173 191 0
91 -192 0
-91 192 0
-106 -148 193 0
106 148 -193 0
106 -193 0
148 -193 0
-66 106 -193 0
-66 148 -193 0
-66 -193 0
66 -106 193 0
66 -148 193 0
-66 106 148 0
65 -153 -190 0
65 -190 -193 0
65 -153 -193 0
-65 153 190 0
-65 190 193 0
-65 153 193 0
-64 -65 190 0
-64 -65 153 0
-64 -65 193 0
64 65 -190 0
64 65 -153 0
64 65 -193 0
64 -153 -190 -193 0
-64 153 190 193 0
63 -154 -157 0
63 -65 -154 0
63 -65 -157 0
-63 154 157 0
-63 65 154 0
-63 65 157 0
-62 -63 154 0
-62 -63 157 0
-62 -63 65 0
62 63 -154 0
62 63 -157 0
62 63 -65 0
62 -65 -154 -157 0
-62 65 154 157 0
61 -161 -162 0
61 -63 -162 0
61 -63 -161 0
-61 161 162 0
-61 63 162 0
-61 63 161 0
-60 -61 162 0
-60 -61 161 0
-60 -61 63 0
60 61 -162 0
60 61 -161 0
60 61 -63 0
60 -63 -161 -162 0
-60 63 161 162 0
59 -165 -170 0
59 -61 -170 0
59 -61 -165 0
-59 165 170 0
-59 61 170 0
-59 61 165 0
-58 -59 170 0
-58 -59 165 0
-58 -59 61 0
58 59 -170 0
58 59 -165 0
58 59 -61 0
58 -61 -165 -170 0
-58 61 165 170 0
57 -169 -191 0
57 -59 -191 0
57 -59 -169 0
-57 169 191 0
-57 59 191 0
-57 59 169 0
-56 -57 191 0
-56 -57 169 0
-56 -57 59 0
56 57 -191 0
56 57 -169 0
56 57 -59 0
56 -59 -169 -191 0
-56 59 169 191 0
55 -173 -174 0
55 -57 -174 0
55 -57 -173 0
-55 173 174 0
-55 57 174 0
-55 57 173 0
-54 -55 174 0
-54 -55 173 0
-54 -55 57 0
54 55 -174 0
54 55 -173 0
54 55 -57 0
54 -57 -173 -174 0
-54 57 173 174 0
-53 66 0
53 -66 0
52 -64 -148 0
-52 64 148 0
-52 64 0
-52 148 0
-51 -52 64 0
-51 -52 148 0
-51 -52 0
51 52 -64 0
51 52 -148 0
-51 64 148 0
50 -62 -153 0
50 -52 -62 0
50 -52 -153 0
-50 62 153 0
-50 52 62 0
-50 52 153 0
-49 -50 62 0
-49 -50 153 0
-49 -50 52 0
49 50 -62 0
49 50 -153 0
49 50 -52 0
49 -52 -62 -153 0
-49 52 62 153 0
48 -60 -157 0
48 -50 -60 0
48 -50 -157 0
-48 60 157 0
-48 50 60 0
-48 50 157 0
-47 -48 60 0
-47 -48 157 0
-47 -48 50 0
47 48 -60 0
47 48 -157 0
47 48 -50 0
47 -50 -60 -157 0
-47 50 60 157 0
46 -58 -161 0
46 -48 -58 0
46 -48 -161 0
-46 58 161 0
-46 48 58 0
-46 48 161 0
-45 -46 58 0
-45 -46 161 0
-45 -46 48 0
45 46 -58 0
45 46 -161 0
45 46 -48 0
45 -48 -58 -161 0
-45 48 58 161 0
44 -56 -165 0
44 -46 -56 0
44 -46 -165 0
-44 56 165 0
-44 46 56 0
-44 46 165 0
-43 -44 56 0
-43 -44 165 0
-43 -44 46 0
43 44 -56 0
43 44 -165 0
43 44 -46 0
43 -46 -56 -165 0
-43 46 56 165 0
42 -54 -169 0
42 -44 -54 0
42 -44 -169 0
-42 54 169 0
-42 44 54 0
-42 44 169 0
-41 -42 54 0
-41 -42 169 0
-41 -42 44 0
41 42 -54 0
41 42 -169 0
41 42 -44 0
41 -44 -54 -169 0
-41 44 54 169 0
40 -55 -173 0
40 -42 -55 0
40 -42 -173 0
-40 55 173 0
-40 42 55 0
-40 42 173 0
-39 -40 55 0
-39 -40 173 0
-39 -40 42 0
39 40 -55 0
39 40 -173 0
39 40 -42 0
39 -42 -55 -173 0
-39 42 55 173 0
-38 -176 0
38 176 0
-37 176 0
37 -176 0
-36 38 0
-36 -178 0
36 -38 178 0
-35 -38 178 0
-35 38 -178 0
35 38 178 0
35 -38 -178 0
-34 36 0
-34 -109 0
34 -36 109 0
-33 -36 109 0
-33 36 -109 0
33 36 109 0
33 -36 -109 0
-32 34 0
-32 -192 0
32 -34 192 0
-31 -34 192 0
-31 34 -192 0
31 34 192 0
31 -34 -192 0
-30 32 0
-30 -53 0
30 -32 53 0
-29 -32 53 0
-29 32 -53 0
29 32 53 0
29 -32 -53 0
-28 30 0
-28 -51 0
28 -30 51 0
-27 -30 51 0
-27 30 -51 0
27 30 51 0
27 -30 -51 0
-26 28 0
-26 -49 0
26 -28 49 0
-25 -28 49 0
-25 28 -49 0
25 28 49 0
25 -28 -49 0
-24 26 0
-24 -47 0
24 -26 47 0
-23 -26 47 0
-23 26 -47 0
23 26 47 0
23 -26 -47 0
-22 24 0
-22 -45 0
22 -24 45 0
-21 -24 45 0
-21 24 -45 0
21 24 45 0
21 -24 -45 0
-20 22 0
-20 -43 0
20 -22 43 0
-19 -22 43 0
-19 22 -43 0
19 22 43 0
19 -22 -43 0
-18 20 0
-18 -41 0
18 -20 41 0
-17 -20 41 0
-17 20 -41 0
17 20 41 0
17 -20 -41 0
-16 18 0
-16 -39 0
16 -18 39 0
-15 -18 39 0
-15 18 -39 0
15 18 39 0
15 -18 -39 0
-14 16 0
-14 -40 0
14 -16 40 0
-13 -16 40 0
-13 16 -40 0
13 16 40 0
13 -16 -40 0
-12 118 0
-12 176 0
12 -118 -176 0
-118 176 0
118 -176 0
11 -127 -178 0
11 -12 -127 0
11 -12 -178 0
-11 127 178 0
-11 12 127 0
-11 12 178 0
11 -127 0
11 -178 0
11 -12 0
-12 -127 -178 0
10 -89 -109 0
10 -11 -89 0
10 -11 -109 0
-10 89 109 0
-10 11 89 0
-10 11 109 0
-10 89 0
-10 109 0
-10 11 0
11 89 109 0
9 -104 -192 0
9 -10 -104 0
9 -10 -192 0
-9 104 192 0
-9 10 104 0
-9 10 192 0
-9 104 0
-9 192 0
-9 10 0
10 104 192 0
8 -53 -82 0
8 -9 -82 0
8 -9 -53 0
-8 53 82 0
-8 9 82 0
-8 9 53 0
8 -82 0
8 -53 0
8 -9 0
-9 -53 -82 0
7 -51 -80 0
7 -8 -80 0
7 -8 -51 0
-7 51 80 0
-7 8 80 0
-7 8 51 0
7 -80 0
7 -51 0
7 -8 0
-8 -51 -80 0
6 -49 -78 0
6 -7 -78 0
6 -7 -49 0
-6 49 78 0
-6 7 78 0
-6 7 49 0
-6 78 0
-6 49 0
-6 7 0
7 49 78 0
5 -47 -76 0
5 -6 -76 0
5 -6 -47 0
-5 47 76 0
-5 6 76 0
-5 6 47 0
5 -76 0
5 -47 0
5 -6 0
-6 -47 -76 0
4 -45 -74 0
4 -5 -74 0
4 -5 -45 0
-4 45 74 0
-4 5 74 0
-4 5 45 0
4 -74 0
4 -45 0
4 -5 0
-5 -45 -74 0
3 -43 -72 0
3 -4 -72 0
3 -4 -43 0
-3 43 72 0
-3 4 72 0
-3 4 43 0
3 -72 0
3 -43 0
3 -4 0
-4 -43 -72 0
2 -41 -73 0
2 -3 -73 0
2 -3 -41 0
-2 41 73 0
-2 3 73 0
-2 3 41 0
2 -73 0
2 -41 0
2 -3 0
-3 -41 -73 0
-1 39 0
-1 2 0
1 -2 -39 0
2 -39 0
-2 39 0
-1 -40 0
1 -40 0
-1 40 0
